c CNF generator v0.9
p cnf 50 50
13 35 -21 0
13 -21 -32 0
32 6 -33 0
-44 43 34 0
4 -24 -11 0
2 17 9 0
-47 -22 48 0
32 16 -44 0
37 27 -30 0
-43 -16 37 0
-29 11 -2 0
-11 -46 47 0
3 19 24 0
-6 -9 47 0
2 -48 47 0
2 -34 -16 0
31 5 12 0
34 -25 -38 0
-21 -4 -15 0
-13 -37 44 0
-28 -26 -27 0
-2 21 42 0
43 37 16 0
-40 -36 -26 0
9 -13 37 0
-18 11 16 0
-45 -3 -26 0
40 -48 -50 0
-21 40 28 0
34 10 -45 0
20 22 -3 0
43 34 22 0
-38 -38 10 0
29 -44 -6 0
27 35 -49 0
-6 49 -28 0
23 16 -32 0
2 21 11 0
-11 -28 -31 0
21 -2 35 0
-20 -36 -2 0
17 -29 20 0
-36 17 -8 0
-12 -23 -1 0
45 15 42 0
47 5 10 0
21 44 -39 0
18 -23 -23 0
18 16 47 0
-37 3 21 0
